h=9;
w=9;
s=3;
b=[|5,0,0,0,0,3,0,0,0|0,0,2,0,5,9,0,0,3|0,0,7,0,6,8,4,1,0|0,0,0,0,0,4,0,0,0|0,0,6,5,0,0,0,3,0|0,9,0,0,1,0,5,6,0|0,0,8,0,2,1,0,0,0|3,0,0,0,4,0,0,0,2|0,0,0,0,0,0,0,4,1|];
t=[|1,0,0,1,1,1,1,0,0|1,0,0,0,1,1,0,1,1|1,1,1,0,0,0,0,1,1|0,1,1,0,1,0,1,1,0|0,1,0,1,1,1,0,1,0|0,1,1,0,1,0,1,0,1|1,0,0,1,0,1,0,1,1|1,1,1,1,0,0,1,0,0|0,0,1,1,0,1,1,0,1|];
